50
    37    29    66    47    49    70    96    92    41     3    47    14    58    38   100    18    39     3    76    76    11    36    36    24    94    97    81    65    97    58    53    66    20     7    35    62    54    48    52    52    80     1    66   100    70     1    83    38    87    99
     2     6    10     7     3     6     1     6     7     5     1     2     8     8     1     1     4     6     6     7     3     5     2     4     7     5     8     5     8     1     5     5     5     3     6     7     2     5     6     3     2     5     2     7     5     9     3     9     7     4
   493     0   814    74  1411     0   831     0   489   114    26     0     0    94  1071     0     0     0  1236     0  1394  1262     0  1365  1821  1033  1585     0   384     0   116   510     0  1354     0   185     0   957    55   558    86  1455     0   277  1131   251   831   576     0     0
